(set-info :smt-lib-version 2.6)
(set-logic UF)
(set-info :source |Benchmarks from the paper: "Extending Sledgehammer with SMT Solvers" by Jasmin Blanchette, Sascha Bohme, and Lawrence C. Paulson, CADE 2011.  Translated to SMT2 by Andrew Reynolds and Morgan Deters.|)
(set-info :category "industrial")
(set-info :status unknown)
(declare-sort S1 0)
(declare-sort S2 0)
(declare-sort S3 0)
(declare-sort S4 0)
(declare-sort S5 0)
(declare-sort S6 0)
(declare-sort S7 0)
(declare-sort S8 0)
(declare-sort S9 0)
(declare-fun f1 () S1)
(declare-fun f2 () S1)
(declare-fun f3 (S2) S1)
(declare-fun f4 (S3 S4) S2)
(declare-fun f5 (S5 S2) S3)
(declare-fun f6 (S6 S2) S5)
(declare-fun f7 () S6)
(declare-fun f8 (S7 S2) S2)
(declare-fun f9 () S7)
(declare-fun f10 () S2)
(declare-fun f11 () S3)
(declare-fun f12 () S4)
(declare-fun f13 () S4)
(declare-fun f14 () S5)
(declare-fun f15 (S4 S4) S1)
(declare-fun f16 (S9 S4) S1)
(declare-fun f17 (S8 S4) S9)
(assert (not (= f1 f2)))
(assert (not (= (f3 (f4 (f5 (f6 f7 (f8 f9 f10)) (f4 f11 f12)) f13)) f1)))
(assert (= (f3 f10) f1))
(assert (forall ((?v0 S4) (?v1 S4)) (= (f3 (f4 (f5 (f6 f7 f10) (f4 f11 ?v0)) ?v1)) f1)))
(assert (forall ((?v0 S2)) (=> (= (f3 ?v0) f1) (= (f3 (f8 f9 ?v0)) f1))))
(assert (forall ((?v0 S4) (?v1 S2)) (= (f4 (f5 (f6 f7 (f4 f11 ?v0)) ?v1) ?v0) ?v1)))
(assert (forall ((?v0 S2) (?v1 S4)) (not (= (f8 f9 ?v0) (f4 f11 ?v1)))))
(assert (forall ((?v0 S4) (?v1 S2)) (not (= (f4 f11 ?v0) (f8 f9 ?v1)))))
(assert (forall ((?v0 S2) (?v1 S2)) (= (= (f8 f9 ?v0) (f8 f9 ?v1)) (= ?v0 ?v1))))
(assert (forall ((?v0 S4) (?v1 S4)) (= (= (f4 f11 ?v0) (f4 f11 ?v1)) (= ?v0 ?v1))))
(assert (forall ((?v0 S2) (?v1 S4)) (=> (= (f3 ?v0) f1) (= (f3 (f4 (f5 f14 ?v0) ?v1)) f1))))
(assert (forall ((?v0 S4) (?v1 S4) (?v2 S2)) (let ((?v_0 (f4 f11 ?v0))) (=> (= (f15 ?v0 ?v1) f1) (= (f4 (f5 (f6 f7 ?v_0) ?v2) ?v1) ?v_0)))))
(assert (forall ((?v0 S2) (?v1 S4) (?v2 S2)) (= (f4 (f5 (f6 f7 (f4 (f5 f14 ?v0) ?v1)) ?v2) ?v1) ?v0)))
(assert (forall ((?v0 S4)) (not (= (f15 ?v0 ?v0) f1))))
(assert (forall ((?v0 S4) (?v1 S4)) (= (not (= ?v0 ?v1)) (or (= (f15 ?v0 ?v1) f1) (= (f15 ?v1 ?v0) f1)))))
(assert (forall ((?v0 S4) (?v1 S4)) (=> (not (= ?v0 ?v1)) (=> (=> (= (f15 ?v0 ?v1) f1) false) (=> (=> (= (f15 ?v1 ?v0) f1) false) false)))))
(assert (forall ((?v0 S4)) (=> (= (f15 ?v0 ?v0) f1) false)))
(assert (forall ((?v0 S4) (?v1 S4)) (=> (= (f15 ?v0 ?v1) f1) (not (= ?v1 ?v0)))))
(assert (forall ((?v0 S4) (?v1 S4)) (=> (= (f15 ?v0 ?v1) f1) (not (= ?v0 ?v1)))))
(assert (forall ((?v0 S4) (?v1 S4) (?v2 S8)) (let ((?v_0 (= (f16 (f17 ?v2 ?v1) ?v0) f1))) (=> (=> (= (f15 ?v0 ?v1) f1) ?v_0) (=> (=> (= ?v0 ?v1) ?v_0) (=> (=> (= (f15 ?v1 ?v0) f1) ?v_0) ?v_0))))))
(assert (forall ((?v0 S4)) (not (= (f15 ?v0 ?v0) f1))))
(assert (forall ((?v0 S4) (?v1 S4)) (= (not (= ?v0 ?v1)) (or (= (f15 ?v0 ?v1) f1) (= (f15 ?v1 ?v0) f1)))))
(assert (forall ((?v0 S4) (?v1 S4)) (= (not (= (f15 ?v0 ?v1) f1)) (or (= (f15 ?v1 ?v0) f1) (= ?v0 ?v1)))))
(assert (forall ((?v0 S4) (?v1 S4)) (or (= (f15 ?v0 ?v1) f1) (or (= ?v0 ?v1) (= (f15 ?v1 ?v0) f1)))))
(assert (forall ((?v0 S4) (?v1 S4)) (=> (=> (= (f15 ?v0 ?v1) f1) false) (=> (=> (= ?v0 ?v1) false) (=> (=> (= (f15 ?v1 ?v0) f1) false) false)))))
(assert (forall ((?v0 S4) (?v1 S4)) (=> (= (f15 ?v0 ?v1) f1) (=> (=> (not false) (= (f15 ?v1 ?v0) f1)) false))))
(assert (forall ((?v0 S4) (?v1 S4) (?v2 S4)) (=> (= (f15 ?v0 ?v1) f1) (=> (= (f15 ?v2 ?v0) f1) (= (f15 ?v2 ?v1) f1)))))
(assert (forall ((?v0 S4) (?v1 S4) (?v2 S4)) (=> (= (f15 ?v0 ?v1) f1) (=> (= (f15 ?v1 ?v2) f1) (= (f15 ?v0 ?v2) f1)))))
(assert (forall ((?v0 S4) (?v1 S4) (?v2 S4)) (=> (= (f15 ?v0 ?v1) f1) (=> (= ?v0 ?v2) (= (f15 ?v2 ?v1) f1)))))
(assert (forall ((?v0 S4) (?v1 S4) (?v2 S4)) (=> (= (f15 ?v0 ?v1) f1) (=> (= ?v1 ?v2) (= (f15 ?v0 ?v2) f1)))))
(assert (forall ((?v0 S4) (?v1 S4) (?v2 S4)) (=> (= ?v0 ?v1) (=> (= (f15 ?v2 ?v1) f1) (= (f15 ?v2 ?v0) f1)))))
(assert (forall ((?v0 S4) (?v1 S4) (?v2 S4)) (=> (= ?v0 ?v1) (=> (= (f15 ?v1 ?v2) f1) (= (f15 ?v0 ?v2) f1)))))
(check-sat)
(exit)
